l01.solver.3.cplex.todo/05.cplex.ItalianFriendsJSP/ItalianFriendsJSP.sol
<?xml version = "1.0" encoding="UTF-8" standalone="yes"?>
<CPLEXSolution version="1.2">
 <header
   problemName=""
   solutionName="incumbent"
   solutionIndex="-1"
   objectiveValue="180"
   solutionTypeValue="3"
   solutionTypeString="primal"
   solutionStatusValue="101"
   solutionStatusString="integer optimal solution"
   solutionMethodString="mip"
   primalFeasible="1"
   dualFeasible="1"
   MIPNodes="0"
   MIPIterations="67"
   writeLevel="1"/>
 <quality
   epInt="1e-05"
   epRHS="1e-06"
   maxIntInfeas="0"
   maxPrimalInfeas="0"
   maxX="180"
   maxSlack="418"/>
 <linearConstraints>
  <constraint index="0" slack="-10"/>
  <constraint index="1" slack="0"/>
  <constraint index="2" slack="-105"/>
  <constraint index="3" slack="-12"/>
  <constraint index="4" slack="-45"/>
  <constraint index="5" slack="-20"/>
  <constraint index="6" slack="0"/>
  <constraint index="7" slack="-15"/>
  <constraint index="8" slack="-28"/>
  <constraint index="9" slack="0"/>
  <constraint index="10" slack="0"/>
  <constraint index="11" slack="0"/>
  <constraint index="12" slack="0"/>
  <constraint index="13" slack="-32"/>
  <constraint index="14" slack="0"/>
  <constraint index="15" slack="0"/>
  <constraint index="16" slack="0"/>
  <constraint index="17" slack="0"/>
  <constraint index="18" slack="0"/>
  <constraint index="19" slack="0"/>
  <constraint index="20" slack="-330"/>
  <constraint index="21" slack="-8"/>
  <constraint index="22" slack="0"/>
  <constraint index="23" slack="-353"/>
  <constraint index="24" slack="-302"/>
  <constraint index="25" slack="-60"/>
  <constraint index="26" slack="-8"/>
  <constraint index="27" slack="-330"/>
  <constraint index="28" slack="-68"/>
  <constraint index="29" slack="-320"/>
  <constraint index="30" slack="-370"/>
  <constraint index="31" slack="-27"/>
  <constraint index="32" slack="-353"/>
  <constraint index="33" slack="0"/>
  <constraint index="34" slack="-320"/>
  <constraint index="35" slack="-68"/>
  <constraint index="36" slack="-292"/>
  <constraint index="37" slack="-120"/>
  <constraint index="38" slack="-60"/>
  <constraint index="39" slack="-302"/>
  <constraint index="40" slack="-27"/>
  <constraint index="41" slack="-370"/>
  <constraint index="42" slack="-120"/>
  <constraint index="43" slack="-292"/>
  <constraint index="44" slack="-50"/>
  <constraint index="45" slack="-368"/>
  <constraint index="46" slack="-143"/>
  <constraint index="47" slack="-273"/>
  <constraint index="48" slack="-418"/>
  <constraint index="49" slack="-2"/>
  <constraint index="50" slack="-368"/>
  <constraint index="51" slack="-50"/>
  <constraint index="52" slack="-90"/>
  <constraint index="53" slack="-325"/>
  <constraint index="54" slack="-365"/>
  <constraint index="55" slack="-54"/>
  <constraint index="56" slack="-273"/>
  <constraint index="57" slack="-143"/>
  <constraint index="58" slack="-325"/>
  <constraint index="59" slack="-90"/>
  <constraint index="60" slack="-270"/>
  <constraint index="61" slack="-147"/>
  <constraint index="62" slack="-2"/>
  <constraint index="63" slack="-418"/>
  <constraint index="64" slack="-54"/>
  <constraint index="65" slack="-365"/>
  <constraint index="66" slack="-147"/>
  <constraint index="67" slack="-270"/>
  <constraint index="68" slack="-23"/>
  <constraint index="69" slack="-295"/>
  <constraint index="70" slack="-98"/>
  <constraint index="71" slack="-280"/>
  <constraint index="72" slack="-389"/>
  <constraint index="73" slack="-3"/>
  <constraint index="74" slack="-295"/>
  <constraint index="75" slack="-23"/>
  <constraint index="76" slack="0"/>
  <constraint index="77" slack="-333"/>
  <constraint index="78" slack="-291"/>
  <constraint index="79" slack="-56"/>
  <constraint index="80" slack="-280"/>
  <constraint index="81" slack="-98"/>
  <constraint index="82" slack="-333"/>
  <constraint index="83" slack="0"/>
  <constraint index="84" slack="-276"/>
  <constraint index="85" slack="-131"/>
  <constraint index="86" slack="-3"/>
  <constraint index="87" slack="-389"/>
  <constraint index="88" slack="-56"/>
  <constraint index="89" slack="-291"/>
  <constraint index="90" slack="-131"/>
  <constraint index="91" slack="-276"/>
  <constraint index="92" slack="-408"/>
  <constraint index="93" slack="0"/>
  <constraint index="94" slack="-90"/>
  <constraint index="95" slack="-298"/>
  <constraint index="96" slack="0"/>
  <constraint index="97" slack="-328"/>
  <constraint index="98" slack="0"/>
  <constraint index="99" slack="-408"/>
  <constraint index="100" slack="-95"/>
  <constraint index="101" slack="-288"/>
  <constraint index="102" slack="-5"/>
  <constraint index="103" slack="-318"/>
  <constraint index="104" slack="-298"/>
  <constraint index="105" slack="-90"/>
  <constraint index="106" slack="-288"/>
  <constraint index="107" slack="-95"/>
  <constraint index="108" slack="-303"/>
  <constraint index="109" slack="0"/>
  <constraint index="110" slack="-328"/>
  <constraint index="111" slack="0"/>
  <constraint index="112" slack="-318"/>
  <constraint index="113" slack="-5"/>
  <constraint index="114" slack="0"/>
  <constraint index="115" slack="-303"/>
 </linearConstraints>
 <variables>
  <variable name="h_A_R" index="0" value="45"/>
  <variable name="h_A_M" index="1" value="163"/>
  <variable name="h_A_S" index="2" value="133"/>
  <variable name="h_A_G" index="3" value="165"/>
  <variable name="h_B_R" index="4" value="113"/>
  <variable name="h_B_M" index="5" value="110"/>
  <variable name="h_B_S" index="6" value="35"/>
  <variable name="h_B_G" index="7" value="170"/>
  <variable name="h_C_R" index="8" value="35"/>
  <variable name="h_C_M" index="9" value="15"/>
  <variable name="h_C_S" index="10" value="20"/>
  <variable name="h_C_G" index="11" value="45"/>
  <variable name="h_D_R" index="12" value="165"/>
  <variable name="h_D_M" index="13" value="167"/>
  <variable name="h_D_S" index="14" value="166"/>
  <variable name="h_D_G" index="15" value="75"/>
  <variable name="x_A_B_R" index="16" value="1"/>
  <variable name="x_A_C_R" index="17" value="0"/>
  <variable name="x_A_D_R" index="18" value="1"/>
  <variable name="x_B_A_R" index="19" value="0"/>
  <variable name="x_B_C_R" index="20" value="0"/>
  <variable name="x_B_D_R" index="21" value="1"/>
  <variable name="x_C_A_R" index="22" value="1"/>
  <variable name="x_C_B_R" index="23" value="1"/>
  <variable name="x_C_D_R" index="24" value="1"/>
  <variable name="x_D_A_R" index="25" value="0"/>
  <variable name="x_D_B_R" index="26" value="0"/>
  <variable name="x_D_C_R" index="27" value="0"/>
  <variable name="x_A_B_M" index="28" value="0"/>
  <variable name="x_A_C_M" index="29" value="0"/>
  <variable name="x_A_D_M" index="30" value="1"/>
  <variable name="x_B_A_M" index="31" value="1"/>
  <variable name="x_B_C_M" index="32" value="0"/>
  <variable name="x_B_D_M" index="33" value="1"/>
  <variable name="x_C_A_M" index="34" value="1"/>
  <variable name="x_C_B_M" index="35" value="1"/>
  <variable name="x_C_D_M" index="36" value="1"/>
  <variable name="x_D_A_M" index="37" value="0"/>
  <variable name="x_D_B_M" index="38" value="0"/>
  <variable name="x_D_C_M" index="39" value="0"/>
  <variable name="x_A_B_S" index="40" value="0"/>
  <variable name="x_A_C_S" index="41" value="0"/>
  <variable name="x_A_D_S" index="42" value="1"/>
  <variable name="x_B_A_S" index="43" value="1"/>
  <variable name="x_B_C_S" index="44" value="0"/>
  <variable name="x_B_D_S" index="45" value="1"/>
  <variable name="x_C_A_S" index="46" value="1"/>
  <variable name="x_C_B_S" index="47" value="1"/>
  <variable name="x_C_D_S" index="48" value="1"/>
  <variable name="x_D_A_S" index="49" value="0"/>
  <variable name="x_D_B_S" index="50" value="0"/>
  <variable name="x_D_C_S" index="51" value="0"/>
  <variable name="x_A_B_G" index="52" value="1"/>
  <variable name="x_A_C_G" index="53" value="0"/>
  <variable name="x_A_D_G" index="54" value="0"/>
  <variable name="x_B_A_G" index="55" value="0"/>
  <variable name="x_B_C_G" index="56" value="0"/>
  <variable name="x_B_D_G" index="57" value="0"/>
  <variable name="x_C_A_G" index="58" value="1"/>
  <variable name="x_C_B_G" index="59" value="1"/>
  <variable name="x_C_D_G" index="60" value="1"/>
  <variable name="x_D_A_G" index="61" value="1"/>
  <variable name="x_D_B_G" index="62" value="1"/>
  <variable name="x_D_C_G" index="63" value="0"/>
  <variable name="y" index="64" value="180"/>
 </variables>
</CPLEXSolution>
